 200 95 
 55 91 92 6 10 36 69 36 14 100 60 37 
 75 67 8 34 43 12 29 98 1 77 58 65 
 29 14 47 93 44 68 53 67 99 45 100 21 
 5 79 81 40 21 24 38 85 63 66 32 15 
 97 14 56 5 49 15 42 4 3 17 3 80 
 15 87 8 95 66 1 16 67 49 86 85 17 
 36 30 69 39 3 96 8 89 15 7 39 66 
 100 42 45 13 87 22 85 9 48 41 77 
 41 
 1 4 5 6 9 10 12 14 15 17 18 23 
 28 29 33 34 35 36 38 39 46 48 52 53 
 57 58 61 62 64 72 74 77 79 80 82 83 
 85 87 91 92 95 
 90 
 1 2 3 4 5 6 7 8 9 10 11 12 
 13 14 15 16 17 18 19 20 21 22 23 25 
 26 27 28 29 30 31 32 33 34 35 36 37 
 38 39 40 41 42 43 44 47 48 49 50 53 
 54 55 56 57 58 59 60 61 62 63 64 65 
 66 67 68 69 70 71 72 73 74 75 76 77 
 78 79 80 81 82 83 84 85 86 87 88 89 
 90 91 92 93 94 95 
 26 
 3 9 10 11 20 29 30 31 33 36 38 40 
 45 49 50 61 68 69 70 75 77 81 84 88 
 92 93 
 70 
 1 2 5 6 7 9 10 11 12 13 14 17 
 18 19 22 23 25 28 29 30 31 32 33 34 
 35 37 38 41 42 43 44 45 47 48 50 51 
 53 54 55 56 57 58 59 60 61 63 64 66 
 67 68 69 70 71 72 73 75 76 77 78 79 
 80 81 86 88 90 91 92 93 94 95 
 28 
 3 6 9 14 21 24 26 30 31 34 35 38 
 42 50 53 56 57 60 64 67 70 73 75 76 
 77 78 79 81 
 46 
 3 11 12 13 14 15 17 18 20 23 24 28 
 29 31 34 35 36 40 41 44 48 49 53 56 
 57 59 60 61 62 65 67 69 70 71 73 74 
 78 81 85 86 87 88 90 91 94 95 
 77 
 1 2 3 4 5 6 8 9 10 11 12 13 
 14 16 17 18 19 21 22 23 24 26 27 28 
 29 30 31 32 34 35 36 38 39 40 41 42 
 43 44 45 47 48 49 50 51 52 54 55 57 
 59 60 62 63 64 65 66 67 68 69 70 71 
 72 73 74 76 77 81 83 84 85 87 88 90 
 91 92 93 94 95 
 26 
 3 4 6 14 17 18 23 25 26 27 29 35 
 43 45 47 56 57 65 73 78 79 83 89 91 
 92 94 
 5 
 22 30 73 79 80 
 64 
 1 7 8 9 10 11 13 15 18 19 20 22 
 26 27 29 30 31 32 33 34 35 37 39 40 
 41 43 44 45 46 47 48 50 51 52 54 55 
 56 57 58 59 60 62 63 64 65 66 68 71 
 73 74 76 79 80 83 85 86 87 88 89 90 
 91 92 93 94 
 83 
 2 3 4 5 6 7 8 9 10 11 12 13 
 14 15 16 17 19 20 21 22 23 24 26 27 
 28 29 30 31 32 33 34 36 38 39 40 41 
 42 43 44 45 46 47 48 49 50 51 52 53 
 54 55 56 57 58 60 61 62 63 64 65 68 
 69 70 71 72 73 74 75 76 77 78 80 81 
 83 84 85 86 87 88 90 91 92 93 94 
 78 
 1 2 3 4 5 6 7 8 11 13 14 15 
 16 17 18 19 20 21 22 23 24 25 26 27 
 28 30 31 32 33 34 35 36 37 38 39 40 
 41 42 43 44 45 46 47 48 49 50 51 52 
 53 55 57 58 59 60 61 64 65 66 68 70 
 71 72 74 76 77 80 81 82 83 85 86 88 
 89 90 91 92 93 95 
 75 
 1 2 3 4 5 7 8 9 10 12 13 14 
 15 16 17 18 19 20 24 25 26 27 28 29 
 31 32 33 34 35 36 40 41 42 43 44 47 
 48 49 50 51 53 54 55 56 57 61 62 63 
 64 65 66 67 68 69 70 71 72 74 75 76 
 77 78 79 80 83 84 86 87 88 89 90 91 
 93 94 95 
 37 
 1 7 11 14 16 20 23 24 27 29 30 31 
 34 41 43 44 50 52 53 54 57 58 59 61 
 62 64 68 71 72 74 80 81 84 90 92 94 
 95 
 48 
 3 8 11 12 13 14 15 21 23 24 27 28 
 29 30 31 36 37 39 40 41 44 45 46 47 
 48 51 56 57 58 60 62 67 68 69 70 71 
 72 75 84 85 86 87 89 90 92 93 94 95 
 42 
 2 3 6 14 19 20 21 22 25 27 30 33 
 35 38 42 45 46 47 48 52 53 54 55 56 
 57 60 61 63 65 66 67 69 70 72 73 74 
 83 84 86 87 90 95 
 41 
 1 2 3 5 6 7 8 9 11 13 15 16 
 19 20 23 29 31 33 35 39 40 45 46 48 
 52 55 57 58 61 63 66 67 69 72 73 79 
 80 86 87 91 95 
 54 
 1 3 4 6 7 8 9 10 15 16 17 19 
 20 21 22 23 24 25 26 27 32 33 34 37 
 38 40 41 42 43 44 46 47 48 49 50 51 
 53 55 57 59 62 65 71 72 78 80 82 83 
 85 87 88 92 93 95 
 45 
 2 6 8 13 14 15 16 19 20 21 22 23 
 26 27 28 29 30 32 34 35 36 42 43 46 
 51 52 53 54 58 61 64 67 68 70 71 74 
 77 78 83 84 85 86 90 93 94 
 27 
 4 5 6 7 8 17 23 25 27 28 29 37 
 40 41 43 44 47 48 50 51 52 54 57 84 
 87 88 89 
 60 
 1 3 5 6 7 9 10 12 15 16 17 18 
 19 20 22 23 24 26 27 28 29 31 32 34 
 35 36 37 38 40 41 43 44 45 47 48 53 
 55 56 59 60 63 64 65 66 67 73 74 77 
 79 80 82 83 84 86 88 91 92 93 94 95 
 37 
 1 2 5 7 11 12 13 17 19 21 22 28 
 30 32 34 35 38 39 40 41 42 48 50 51 
 53 56 58 65 66 68 75 77 79 87 88 89 
 93 
 95 
 1 2 3 4 5 6 7 8 9 10 11 12 
 13 14 15 16 17 18 19 20 21 22 23 24 
 25 26 27 28 29 30 31 32 33 34 35 36 
 37 38 39 40 41 42 43 44 45 46 47 48 
 49 50 51 52 53 54 55 56 57 58 59 60 
 61 62 63 64 65 66 67 68 69 70 71 72 
 73 74 75 76 77 78 79 80 81 82 83 84 
 85 86 87 88 89 90 91 92 93 94 95 
 65 
 1 2 4 5 6 7 8 9 10 11 14 15 
 16 17 18 19 20 21 22 23 24 25 26 27 
 28 29 30 31 32 36 37 38 40 41 42 43 
 45 47 51 52 53 56 59 60 62 63 65 66 
 67 68 69 71 72 74 75 76 77 78 79 83 
 86 87 90 94 95 
 19 
 5 11 12 17 18 31 32 37 45 48 61 72 
 73 79 82 84 86 88 92 
 15 
 6 15 21 26 27 38 44 48 51 67 69 72 
 86 93 94 
 56 
 2 5 6 7 9 11 12 14 15 16 19 22 
 23 24 27 28 31 32 33 34 35 37 39 41 
 43 47 48 49 51 52 53 55 56 57 58 59 
 63 64 67 69 71 72 73 74 76 78 81 83 
 84 86 87 88 90 91 92 93 
 70 
 2 3 4 5 7 8 9 10 12 13 14 16 
 17 19 20 22 23 27 28 29 30 31 33 34 
 35 39 41 42 43 45 47 48 49 50 51 53 
 54 56 57 58 59 60 61 62 63 64 65 66 
 67 68 69 70 71 72 73 74 75 76 78 80 
 81 82 83 85 87 89 91 92 93 94 
 6 
 2 3 8 21 67 83 
 52 
 1 2 4 6 7 8 10 13 15 16 18 20 
 21 22 23 25 26 27 28 29 34 35 36 37 
 38 43 45 46 48 49 50 51 52 53 55 60 
 62 63 64 67 68 69 72 78 79 83 86 88 
 89 90 91 92 
 58 
 2 3 4 5 6 11 13 16 18 19 20 21 
 22 26 27 29 31 32 33 35 37 38 39 40 
 41 43 44 47 48 49 50 51 52 54 55 56 
 62 63 64 65 66 67 68 69 74 77 78 80 
 81 82 84 85 86 89 90 91 92 93 
 6 
 7 10 40 51 59 92 
 24 
 1 5 6 8 12 14 16 19 22 30 33 37 
 44 52 68 74 75 76 82 83 86 89 90 95 
 30 
 2 3 5 8 10 24 26 27 30 31 32 38 
 39 41 44 45 51 52 55 56 61 68 71 72 
 73 74 75 76 90 92 
 26 
 3 9 16 23 28 36 37 39 44 45 58 59 
 60 67 68 69 70 71 74 77 80 81 84 86 
 93 94 
 10 
 8 13 17 18 24 29 42 61 62 87 
 57 
 1 4 5 6 7 8 10 12 13 16 17 19 
 20 22 23 24 25 26 28 30 31 35 36 37 
 38 39 40 41 45 46 47 49 50 51 52 53 
 54 55 56 57 59 60 61 66 67 70 71 74 
 76 79 83 84 87 88 89 91 93 
 93 
 1 2 3 4 5 6 7 9 10 11 12 13 
 14 15 16 17 18 19 20 21 22 23 24 25 
 26 27 28 29 30 31 32 33 34 35 36 37 
 38 39 40 41 42 43 44 45 46 47 48 49 
 50 51 52 53 54 55 56 57 58 59 60 61 
 62 63 64 65 66 67 68 69 70 71 72 74 
 75 76 77 78 79 80 81 82 83 84 85 86 
 87 88 89 90 91 92 93 94 95 
 79 
 1 2 3 5 6 7 8 10 11 14 15 16 
 17 18 19 21 22 23 26 27 28 29 30 31 
 32 35 36 37 38 39 40 41 42 43 44 45 
 46 47 48 49 50 52 53 55 56 57 59 60 
 61 62 63 64 65 66 68 69 70 71 72 73 
 74 75 76 78 79 80 81 82 83 85 86 87 
 88 89 90 91 92 93 95 
 22 
 6 17 18 19 28 33 36 42 44 45 50 55 
 56 58 60 62 66 70 71 74 89 94 
 45 
 1 3 4 5 8 10 11 13 14 15 16 17 
 18 19 21 23 24 25 26 28 29 30 33 37 
 39 40 49 53 60 61 64 65 66 71 72 74 
 75 77 81 83 89 90 92 93 95 
 52 
 4 5 7 8 9 10 12 13 14 16 17 19 
 22 24 26 27 29 30 31 32 36 37 38 39 
 40 42 44 49 50 51 52 53 58 59 60 62 
 65 67 69 72 73 75 76 79 80 82 85 86 
 91 92 94 95 
 89 
 1 2 4 5 6 7 8 9 10 11 12 13 
 14 15 16 17 18 19 20 21 22 23 24 25 
 26 27 28 30 31 32 33 34 35 36 37 38 
 39 40 41 42 43 44 45 46 47 48 49 50 
 51 52 53 54 55 56 57 58 59 60 61 62 
 63 64 65 67 68 71 72 73 74 75 76 77 
 78 79 80 81 82 83 84 85 86 87 88 90 
 91 92 93 94 95 
 61 
 1 2 5 7 8 10 11 13 15 16 18 19 
 20 22 23 24 25 26 27 28 29 32 34 36 
 37 39 40 41 43 44 45 47 49 51 52 53 
 54 56 61 62 64 65 66 67 69 71 73 75 
 76 79 81 82 83 84 85 86 87 90 91 92 
 95 
 66 
 1 2 3 5 8 9 13 14 15 16 17 19 
 21 23 24 25 26 27 28 29 31 33 34 35 
 36 39 40 42 43 45 46 47 48 50 51 53 
 54 55 56 58 60 61 62 63 65 66 67 69 
 70 72 74 75 76 77 80 81 82 83 84 85 
 86 87 89 92 94 95 
 64 
 1 2 3 4 5 8 10 11 12 14 16 19 
 20 23 24 25 27 28 29 30 33 36 37 38 
 39 40 42 43 44 45 46 48 50 51 54 55 
 56 57 59 61 62 65 66 67 68 71 72 73 
 74 75 76 77 78 79 80 82 84 88 89 90 
 91 92 93 95 
 11 
 18 21 24 27 32 40 42 46 59 73 92 
 4 
 3 31 64 73 
 36 
 1 2 4 5 8 9 12 14 15 19 24 26 
 30 35 36 39 44 50 53 54 55 60 62 66 
 68 69 72 73 77 79 81 83 85 87 90 95 
 2 
 14 81 
 31 
 3 6 7 13 18 19 27 28 30 33 36 38 
 39 42 44 45 46 47 50 52 54 60 61 62 
 65 68 72 78 81 86 90 
 11 
 5 9 14 16 38 39 54 63 64 80 84 
 15 
 3 9 11 14 25 28 34 37 39 41 62 65 
 79 87 89 
 90 
 1 2 3 4 5 6 8 10 11 12 13 14 
 15 16 18 19 20 21 22 23 25 26 27 28 
 29 30 31 32 33 34 35 37 38 39 40 41 
 42 43 44 45 46 47 48 49 50 51 52 53 
 54 55 56 57 58 59 60 61 62 63 64 65 
 66 67 68 69 70 71 72 73 74 75 76 77 
 78 79 80 81 82 83 84 85 86 87 88 89 
 90 91 92 93 94 95 
 78 
 1 2 3 5 6 7 8 9 10 11 14 15 
 16 17 19 22 24 26 27 28 30 31 32 33 
 34 35 36 38 39 40 41 42 43 44 45 46 
 47 48 49 50 51 53 54 56 57 59 60 61 
 62 63 64 65 66 67 68 69 70 71 72 73 
 74 75 77 79 80 81 82 83 84 85 86 87 
 88 90 92 93 94 95 
 55 
 1 2 3 4 8 9 13 14 16 17 19 22 
 27 28 29 33 35 36 37 38 39 41 42 43 
 44 45 46 47 48 51 52 53 55 56 59 61 
 62 64 67 69 72 73 75 76 78 82 84 85 
 86 87 88 89 91 92 95 
 39 
 11 12 14 15 17 20 22 24 28 30 31 33 
 34 41 44 45 48 53 55 56 60 61 62 63 
 65 67 69 70 72 73 76 82 83 84 85 88 
 89 91 93 
 70 
 1 2 3 5 6 7 9 10 11 12 13 14 
 15 19 21 22 23 26 27 28 29 31 32 34 
 37 38 40 41 43 45 46 47 48 49 50 51 
 52 54 55 56 57 59 60 61 62 63 64 65 
 66 67 68 69 75 76 77 78 80 81 82 83 
 84 85 86 87 88 89 90 91 92 95 
 42 
 5 7 11 12 18 19 21 24 25 27 33 39 
 40 48 49 50 51 55 56 57 59 60 62 63 
 66 67 68 71 72 73 75 77 80 82 83 86 
 87 88 89 90 93 94 
 82 
 1 2 3 4 5 6 7 8 9 12 13 14 
 15 17 18 19 20 21 22 23 24 25 26 27 
 28 29 30 31 32 33 34 35 36 37 38 39 
 40 41 42 43 44 45 46 47 48 49 50 51 
 54 55 56 58 59 60 61 63 65 67 68 69 
 71 72 74 75 76 77 78 79 80 81 82 83 
 84 85 86 87 88 89 90 91 94 95 
 90 
 1 2 3 4 5 6 7 8 9 10 11 12 
 13 14 15 16 17 18 19 20 21 22 23 25 
 26 27 29 30 31 32 33 34 35 36 37 38 
 39 40 41 44 45 46 47 48 50 51 52 53 
 54 55 56 57 58 59 60 61 62 63 64 65 
 66 67 68 69 70 71 72 73 74 75 76 77 
 78 79 80 81 82 83 84 85 86 87 88 89 
 90 91 92 93 94 95 
 10 
 6 7 15 17 22 27 63 70 84 95 
 41 
 1 3 9 11 12 13 14 15 17 18 23 26 
 27 29 30 34 40 43 46 48 54 56 57 61 
 62 63 68 69 70 72 73 76 78 82 83 86 
 90 91 92 94 95 
 74 
 1 2 4 5 6 7 8 9 10 12 14 16 
 17 18 20 21 22 23 24 25 26 27 28 29 
 30 31 32 33 34 35 36 37 39 40 41 42 
 44 45 46 47 48 52 53 54 55 57 58 59 
 60 61 63 65 66 67 68 70 71 72 75 76 
 77 78 79 80 81 82 83 84 85 86 88 89 
 91 92 
 84 
 1 2 3 4 5 6 7 8 10 11 12 13 
 14 15 16 17 19 20 21 22 23 24 25 27 
 28 29 30 31 32 33 35 36 37 39 40 41 
 43 44 45 46 48 50 51 52 53 54 55 56 
 57 58 59 60 61 62 63 64 65 66 67 68 
 69 70 71 72 73 74 75 76 77 78 79 80 
 81 82 83 85 86 88 89 90 91 92 94 95 
 74 
 1 3 4 5 6 7 8 9 10 11 13 14 
 15 16 17 19 21 22 24 25 27 28 29 30 
 31 33 36 37 38 39 40 42 43 45 46 47 
 48 49 50 51 52 54 55 56 57 58 59 60 
 61 62 65 67 68 72 73 74 76 77 78 80 
 81 82 83 84 85 86 87 88 89 90 91 92 
 93 94 
 74 
 2 4 5 6 7 8 10 11 12 13 14 15 
 18 19 20 21 23 24 25 26 28 30 31 34 
 35 36 37 38 39 40 41 42 43 44 45 46 
 48 49 50 51 52 53 54 55 56 57 58 59 
 60 61 62 63 64 65 66 67 69 70 71 73 
 74 75 78 79 83 85 86 87 90 91 92 93 
 94 95 
 40 
 1 5 6 8 9 11 13 16 20 21 24 25 
 27 29 30 35 36 38 42 43 48 50 51 55 
 56 61 66 67 79 81 84 85 86 89 90 91 
 92 93 94 95 
 39 
 2 3 5 7 8 10 11 12 13 17 18 20 
 24 26 27 29 30 31 34 35 41 44 45 46 
 48 49 50 51 56 58 60 69 70 78 81 85 
 91 92 95 
 14 
 5 18 22 30 39 42 57 61 62 81 86 90 
 92 95 
 91 
 1 2 3 4 5 6 7 8 9 10 11 12 
 13 14 15 16 17 18 19 20 21 22 23 24 
 25 26 27 28 29 30 31 32 33 34 35 36 
 37 38 39 40 41 43 44 45 46 47 48 50 
 51 52 53 54 55 56 57 58 59 60 61 63 
 64 65 66 67 68 69 70 71 72 73 74 75 
 76 77 78 79 80 81 82 83 84 85 86 87 
 88 89 91 92 93 94 95 
 80 
 2 4 5 6 7 8 9 11 12 13 14 15 
 17 18 19 20 22 24 25 26 27 28 30 31 
 32 33 34 35 36 37 38 39 40 41 42 43 
 44 46 47 48 49 50 51 52 53 54 55 56 
 57 58 60 61 62 63 64 65 66 67 68 69 
 70 71 72 74 75 77 78 79 80 82 83 85 
 86 88 89 90 91 93 94 95 
 13 
 1 14 37 43 48 49 57 67 68 83 84 85 
 93 
 7 
 1 18 25 30 40 69 79 
 33 
 3 4 5 7 9 10 11 13 14 15 16 25 
 26 27 33 36 37 39 48 50 54 59 60 61 
 70 71 73 81 82 84 89 90 93 
 69 
 1 3 5 6 7 8 9 11 12 14 15 16 
 17 18 22 25 26 28 29 30 31 33 34 37 
 38 42 43 47 48 49 50 51 52 53 54 55 
 56 57 59 60 61 62 63 66 67 68 69 70 
 72 73 74 76 78 79 80 81 82 83 84 86 
 87 88 89 90 91 92 93 94 95 
 51 
 7 9 10 15 17 19 20 21 22 23 26 27 
 28 29 32 36 37 40 42 43 44 49 50 52 
 54 57 59 60 65 66 67 70 71 72 73 74 
 76 78 79 80 82 83 85 87 88 90 91 92 
 93 94 95 
 79 
 1 2 4 6 7 8 9 10 11 12 13 14 
 15 16 17 19 20 21 22 23 24 25 26 27 
 28 30 31 33 34 35 36 37 38 39 40 41 
 42 43 45 46 47 48 49 51 52 53 54 56 
 57 59 60 61 63 65 66 67 68 69 70 72 
 73 74 75 76 77 78 80 81 82 83 84 86 
 87 88 89 90 91 94 95 
 19 
 14 16 17 19 20 21 34 52 53 71 73 75 
 76 78 86 89 90 92 93 
 11 
 4 6 20 44 49 58 60 75 76 77 81 
 67 
 1 2 3 5 6 7 8 9 10 11 14 16 
 17 18 20 21 22 23 24 25 26 27 31 33 
 34 35 36 37 38 39 40 41 42 43 44 45 
 46 47 48 51 53 54 55 57 58 59 60 63 
 64 65 67 68 69 71 72 73 75 77 83 84 
 85 87 90 92 93 94 95 
 77 
 1 2 3 5 6 8 9 12 13 14 16 18 
 19 20 21 22 25 26 28 29 30 31 32 33 
 34 35 36 37 38 39 40 41 43 44 46 47 
 48 50 51 52 53 54 55 56 57 58 60 61 
 62 63 64 66 67 68 69 70 72 73 74 76 
 77 78 79 80 81 82 83 84 85 86 87 88 
 91 92 93 94 95 
 93 
 1 2 3 4 5 6 7 8 9 10 11 12 
 13 14 15 16 17 18 20 21 22 23 24 25 
 26 27 28 29 30 32 33 34 35 36 37 38 
 39 40 41 42 43 44 45 46 47 48 49 50 
 51 52 53 54 55 56 57 58 59 60 61 62 
 63 64 65 66 67 68 69 70 71 72 73 74 
 75 76 77 78 79 80 81 82 83 84 85 86 
 87 88 89 90 91 92 93 94 95 
 45 
 6 8 10 11 12 13 14 16 20 21 22 25 
 27 34 36 39 40 41 44 46 47 48 52 53 
 54 55 57 60 64 65 66 69 70 73 74 76 
 78 79 81 84 85 87 88 89 93 
 92 
 1 2 3 4 5 6 7 8 9 10 11 12 
 13 14 15 16 17 18 19 20 21 22 23 24 
 25 26 28 29 30 31 32 33 34 35 36 37 
 38 39 40 41 43 44 45 46 47 48 49 50 
 51 52 53 54 55 56 57 58 59 60 61 62 
 63 64 65 66 67 68 69 70 71 72 73 74 
 75 76 78 79 80 81 82 83 84 85 86 87 
 88 89 90 91 92 93 94 95 
 16 
 3 4 5 11 12 14 24 34 35 46 47 49 
 58 63 69 92 
 22 
 1 6 12 13 22 25 32 51 58 61 65 66 
 68 69 71 72 77 80 82 84 91 92 
 2 
 50 75 
 68 
 1 2 3 4 5 6 8 9 10 11 13 14 
 16 17 19 20 22 23 24 26 27 30 31 33 
 34 35 36 37 38 39 40 41 42 43 44 45 
 49 51 52 53 54 56 58 60 61 62 64 66 
 68 69 73 75 76 77 78 80 83 84 85 86 
 87 88 89 90 91 92 94 95 
 7 
 26 29 50 64 67 89 91 
 90 
 1 2 3 5 6 7 8 10 11 12 13 14 
 15 16 17 18 19 20 21 22 23 24 25 26 
 27 28 29 31 32 33 34 35 36 37 38 39 
 40 41 42 43 44 45 46 47 48 49 50 51 
 52 53 54 55 56 57 58 59 60 61 62 63 
 65 67 68 69 70 71 72 73 74 75 76 77 
 78 79 80 81 82 83 84 85 86 87 88 89 
 90 91 92 93 94 95 
 56 
 1 2 4 5 6 8 11 12 14 15 16 18 
 23 25 26 29 31 33 35 36 38 44 45 46 
 47 48 49 50 52 54 55 56 57 58 59 60 
 62 64 65 69 70 72 75 76 79 80 81 82 
 83 85 86 88 89 90 93 95 
 32 
 5 7 9 11 12 16 17 18 19 20 28 29 
 30 31 32 34 46 47 49 50 53 57 61 66 
 69 74 80 84 86 87 89 91 
 74 
 1 2 3 4 5 6 7 8 10 11 12 13 
 18 19 20 21 22 23 25 28 29 31 32 33 
 36 38 39 42 43 44 45 46 47 48 50 51 
 52 53 54 55 56 58 59 60 61 62 63 64 
 66 67 68 69 70 71 73 74 76 77 78 79 
 80 82 83 84 85 86 87 88 89 91 92 93 
 94 95 
 14 
 19 22 24 28 37 38 45 49 52 71 74 81 
 89 95 
 46 
 1 2 5 7 13 14 16 17 18 20 25 26 
 27 30 32 35 39 41 42 44 45 46 48 51 
 53 56 58 60 61 62 65 67 72 74 76 77 
 78 84 86 87 88 90 91 93 94 95 
 29 
 4 8 10 12 15 16 17 23 25 35 36 41 
 45 47 48 49 57 61 62 65 67 69 71 72 
 77 79 86 93 94 
 38 
 2 3 6 8 9 17 20 25 26 29 31 33 
 36 38 44 46 48 49 50 51 55 59 62 63 
 64 65 66 70 71 78 79 83 85 86 89 91 
 93 94 
 90 
 1 2 3 4 5 6 7 9 10 11 12 13 
 14 15 16 17 18 19 20 21 22 23 24 25 
 26 27 28 29 30 32 33 34 35 36 37 38 
 39 40 41 42 43 44 45 46 47 49 50 51 
 52 53 54 55 56 57 58 59 60 61 62 63 
 64 66 67 68 69 70 71 72 73 74 75 76 
 77 78 79 80 81 82 83 84 85 86 87 88 
 89 90 91 92 93 95 
 90 
 1 2 3 4 5 6 7 8 9 11 13 14 
 15 16 17 18 19 20 21 22 23 24 25 27 
 28 29 30 31 32 33 34 35 36 37 38 39 
 40 41 42 43 44 45 46 47 48 49 50 51 
 52 53 54 55 57 58 59 61 62 63 64 65 
 66 67 68 69 70 71 72 73 74 75 76 77 
 78 79 80 81 82 83 84 85 86 87 88 89 
 90 91 92 93 94 95 
 82 
 1 2 3 4 5 7 8 9 11 12 13 14 
 15 16 19 20 21 22 23 24 25 26 28 29 
 30 31 32 33 34 35 37 38 39 40 41 43 
 44 45 46 47 48 49 50 51 52 53 54 55 
 56 57 58 59 60 61 62 63 64 65 66 68 
 70 71 72 73 74 75 76 77 78 79 80 81 
 82 83 84 85 87 88 90 91 93 94 
 65 
 2 4 5 7 11 12 14 15 16 18 19 20 
 24 25 26 27 28 30 32 33 37 38 39 40 
 41 43 44 45 46 47 48 49 51 54 55 56 
 57 58 59 60 62 64 65 66 67 68 71 72 
 74 76 77 80 81 82 83 84 86 87 88 89 
 90 92 93 94 95 
 67 
 2 3 4 6 8 9 10 11 13 14 17 18 
 19 20 21 22 23 24 25 27 28 30 31 32 
 33 34 36 37 39 42 43 44 45 46 47 48 
 49 50 51 53 54 55 56 58 59 60 61 62 
 63 65 66 68 69 71 72 73 75 77 78 81 
 85 86 88 91 93 94 95 
 37 
 1 2 3 5 8 11 13 16 22 25 28 30 
 34 39 40 42 44 46 47 51 53 56 59 73 
 77 80 81 82 85 86 87 88 90 91 92 94 
 95 
 20 
 1 4 6 10 12 17 35 42 45 51 53 54 
 55 57 61 75 78 79 83 84 
 23 
 1 3 4 10 13 15 16 28 34 46 47 51 
 52 54 58 60 65 68 73 79 81 87 89 
 26 
 1 3 7 12 18 22 26 32 34 35 38 47 
 50 51 53 55 61 66 70 71 79 80 82 84 
 86 88 
 17 
 5 16 22 29 30 31 35 40 49 56 60 64 
 66 73 82 85 92 
 67 
 5 6 7 9 10 11 12 13 15 16 17 18 
 20 21 22 24 27 29 31 32 34 35 37 38 
 39 41 42 43 44 46 49 51 54 55 56 57 
 58 60 61 62 63 65 66 67 68 69 70 71 
 72 73 74 75 77 78 81 82 83 84 85 86 
 87 88 89 91 93 94 95 
 41 
 1 2 5 7 8 9 12 13 17 19 25 26 
 27 36 39 40 41 48 49 55 56 57 58 59 
 60 61 63 66 67 68 70 72 74 77 79 85 
 89 92 93 94 95 
 37 
 2 3 8 9 12 14 21 24 25 27 28 30 
 31 34 35 36 40 41 42 47 50 51 55 56 
 58 62 65 66 74 75 77 78 79 81 83 84 
 88 
 61 
 2 3 6 7 8 9 12 13 15 16 17 20 
 21 24 26 27 28 29 30 31 33 34 36 37 
 39 40 41 42 47 51 52 53 54 55 58 61 
 62 63 64 65 68 69 70 71 72 74 75 76 
 77 78 79 80 82 84 88 89 90 91 92 93 
 95 
 71 
 2 3 5 6 8 11 12 13 14 15 16 17 
 18 19 21 22 23 24 25 26 27 30 31 32 
 33 34 36 37 38 39 40 41 42 44 48 49 
 50 51 52 53 54 56 57 58 62 64 65 66 
 67 68 69 70 71 72 73 74 75 76 77 78 
 80 82 84 85 87 89 90 91 92 93 94 
 15 
 1 12 14 25 38 44 45 51 55 57 63 71 
 78 84 95 
 57 
 1 2 3 4 5 6 8 9 11 12 13 14 
 15 18 22 26 27 28 29 30 33 34 35 38 
 40 41 42 43 46 47 48 51 52 53 56 57 
 58 59 60 61 63 65 68 69 71 73 74 75 
 78 79 80 81 83 85 86 90 95 
 64 
 2 3 4 6 7 8 10 11 12 13 14 15 
 18 19 20 21 22 23 24 25 30 31 32 36 
 37 39 40 41 43 45 47 48 50 53 54 55 
 56 57 58 60 61 62 63 64 65 66 67 69 
 72 73 75 76 79 80 81 82 83 87 89 90 
 91 93 94 95 
 58 
 2 3 4 5 6 7 9 12 13 14 15 16 
 17 18 19 20 23 24 25 27 28 29 30 32 
 33 34 36 38 40 42 43 44 45 46 47 51 
 52 53 56 58 59 60 61 64 66 67 68 76 
 77 78 81 82 84 89 90 91 93 95 
 28 
 2 4 15 18 21 22 26 28 29 31 35 36 
 40 48 52 56 58 59 61 64 71 74 77 80 
 83 86 88 90 
 54 
 1 3 4 6 8 9 11 12 14 18 19 20 
 21 25 27 28 29 30 32 35 39 42 44 45 
 48 49 50 51 52 53 55 56 57 60 62 63 
 64 65 67 68 69 70 71 72 75 76 80 81 
 82 85 90 91 92 93 
 77 
 1 2 3 4 5 7 8 10 11 12 13 14 
 16 17 19 20 21 22 23 24 25 27 28 29 
 31 32 33 34 35 36 39 40 41 42 43 44 
 45 46 48 49 50 51 52 53 54 55 56 57 
 58 59 60 61 64 65 66 68 69 70 72 74 
 75 76 77 78 79 80 82 84 85 86 88 90 
 91 92 93 94 95 
 58 
 1 2 6 7 8 9 13 14 16 17 19 21 
 22 23 24 25 27 28 29 30 31 32 33 37 
 39 40 41 42 43 50 51 54 55 57 60 61 
 62 63 65 66 68 69 70 72 73 74 75 77 
 78 79 81 82 83 84 87 89 92 94 
 13 
 30 34 44 57 62 73 75 82 88 91 92 93 
 95 
 6 
 6 23 27 40 68 75 
 8 
 17 21 26 37 39 66 84 89 
 28 
 8 11 12 17 20 22 25 27 31 32 39 45 
 47 48 51 53 56 57 58 60 64 67 68 70 
 75 78 80 87 
 56 
 1 2 3 8 11 12 13 14 15 16 17 18 
 19 23 26 30 33 34 35 36 38 39 43 44 
 45 46 48 49 53 54 56 57 58 60 61 64 
 68 69 70 71 75 76 77 78 79 80 82 84 
 87 88 89 91 92 93 94 95 
 3 
 53 60 69 
 80 
 1 2 3 4 5 7 8 10 11 12 13 14 
 15 16 17 18 19 20 21 22 23 24 25 26 
 27 28 29 30 32 33 34 35 36 37 39 40 
 42 44 45 46 47 48 49 50 51 52 54 55 
 56 57 58 59 61 62 63 64 65 66 67 68 
 69 71 72 73 74 75 76 77 78 79 82 83 
 85 86 88 90 91 93 94 95 
 76 
 2 4 7 9 10 11 12 13 14 15 16 17 
 18 21 23 24 25 26 27 28 29 30 31 32 
 33 34 35 36 37 38 39 40 41 42 43 44 
 45 46 47 48 50 52 53 54 55 56 57 58 
 59 60 62 63 64 65 66 67 68 69 70 71 
 75 76 79 81 82 83 84 85 86 87 89 90 
 91 92 93 95 
 80 
 1 2 3 4 5 6 7 9 10 11 12 13 
 14 15 17 18 20 21 22 23 25 27 28 29 
 31 32 33 34 36 37 38 39 40 41 42 43 
 44 45 46 47 48 49 50 51 52 53 54 55 
 58 60 61 63 64 65 66 67 68 69 70 71 
 72 73 74 76 77 79 80 81 82 83 84 87 
 88 89 90 91 92 93 94 95 
 55 
 2 4 6 8 9 10 12 14 15 16 18 19 
 20 21 25 29 31 32 33 34 35 37 39 41 
 43 44 47 48 49 51 52 53 55 56 60 61 
 63 64 66 68 69 70 71 72 73 74 77 78 
 80 81 83 84 91 92 95 
 20 
 5 10 12 13 15 16 18 19 22 28 53 59 
 64 69 70 74 79 87 88 95 
 86 
 1 2 3 4 5 6 7 8 9 10 11 12 
 13 14 17 18 19 20 21 22 23 24 25 26 
 28 29 30 31 32 33 35 36 37 38 39 40 
 41 42 43 45 46 47 48 50 51 52 53 54 
 55 56 58 59 60 61 62 63 64 65 66 67 
 68 69 70 71 72 73 74 75 76 78 79 80 
 81 82 83 84 85 86 87 88 89 90 91 92 
 93 94 
 11 
 6 21 39 56 58 60 63 64 72 77 82 
 77 
 1 3 4 5 6 7 8 9 10 11 13 14 
 15 17 18 19 22 23 25 26 27 28 29 30 
 31 32 33 35 36 38 39 41 43 44 45 46 
 48 49 50 51 52 53 55 57 58 59 61 62 
 63 64 65 66 67 68 69 70 71 73 74 75 
 76 77 79 80 81 82 83 84 85 86 88 89 
 90 91 92 93 94 
 28 
 11 15 17 20 21 22 27 30 32 33 38 41 
 42 43 44 46 48 50 55 59 64 66 69 70 
 73 81 83 85 
 92 
 1 2 3 4 6 7 8 9 10 11 12 13 
 14 15 16 17 18 19 20 21 22 23 24 25 
 26 27 28 29 30 31 32 33 34 35 36 37 
 38 40 41 42 43 44 45 46 47 48 49 50 
 51 52 53 54 55 56 57 58 59 61 62 63 
 64 65 66 67 68 69 70 71 72 73 74 75 
 76 77 78 79 80 81 82 83 84 85 86 87 
 88 89 90 91 92 93 94 95 
 27 
 1 3 12 13 14 21 23 24 25 27 28 30 
 35 43 45 56 60 61 63 67 71 73 75 76 
 85 89 95 
 35 
 5 6 8 11 22 23 24 25 30 31 32 34 
 35 38 43 47 53 58 62 63 67 68 69 70 
 72 73 75 76 77 78 82 91 93 94 95 
 68 
 3 4 6 7 8 9 10 11 12 13 14 16 
 17 18 19 20 22 23 24 26 27 29 30 32 
 34 35 36 38 40 41 42 43 44 45 46 47 
 48 49 51 53 55 56 58 59 60 61 64 65 
 66 67 68 69 70 72 74 75 76 79 81 84 
 85 86 87 88 91 92 93 95 
 57 
 1 2 3 4 6 8 11 13 17 19 21 23 
 25 26 31 32 33 36 38 39 40 41 42 44 
 45 46 48 49 50 51 52 53 55 57 59 61 
 62 64 65 66 67 70 71 72 75 78 81 82 
 84 86 87 89 90 91 92 94 95 
 71 
 1 2 3 6 8 10 11 12 13 14 15 16 
 17 18 19 20 21 24 25 26 27 29 30 31 
 32 34 35 36 37 41 43 44 46 47 48 49 
 50 51 52 53 54 55 56 58 59 60 61 62 
 63 64 65 66 67 69 70 73 76 78 80 81 
 83 84 85 87 88 89 90 91 92 94 95 
 89 
 1 2 3 4 5 6 7 8 9 11 12 13 
 14 15 16 17 19 20 21 22 23 24 25 26 
 28 29 30 31 32 33 34 35 36 37 38 39 
 40 41 42 43 44 45 46 48 49 50 51 53 
 54 55 56 57 58 59 60 61 62 63 64 65 
 66 67 68 69 70 71 72 73 74 75 76 77 
 78 79 80 81 82 83 84 85 86 87 88 89 
 90 91 92 93 95 
 42 
 3 4 8 12 13 23 25 26 28 33 34 38 
 39 40 41 42 43 45 46 49 53 54 56 57 
 58 59 61 64 65 66 67 68 70 73 74 79 
 82 87 89 91 92 95 
 26 
 3 4 10 17 18 19 22 25 26 32 35 37 
 38 39 42 51 52 59 67 77 78 80 84 88 
 90 93 
 8 
 1 22 38 54 57 67 73 82 
 80 
 1 3 4 5 6 7 8 9 10 11 12 13 
 15 16 18 19 21 22 23 24 25 27 28 29 
 30 31 32 33 34 35 36 37 38 39 41 42 
 43 44 49 50 51 52 53 54 56 57 58 59 
 61 62 63 65 66 67 68 69 70 71 72 73 
 74 75 76 77 78 79 81 82 83 84 85 86 
 87 88 89 90 91 93 94 95 
 17 
 13 14 23 25 30 31 33 43 47 48 55 58 
 71 77 79 84 95 
 58 
 1 4 5 6 7 8 9 10 12 13 16 17 
 18 19 20 21 23 25 26 28 29 33 34 36 
 38 40 41 42 44 45 46 47 49 51 52 53 
 55 57 58 62 63 64 66 69 72 74 79 81 
 82 83 84 86 87 88 89 90 91 93 
 42 
 1 5 8 9 12 15 17 21 24 25 26 29 
 30 33 34 35 36 37 38 39 40 42 44 45 
 46 47 55 56 57 58 61 68 70 75 76 82 
 84 85 88 90 93 94 
 17 
 2 6 25 26 28 30 32 33 35 38 45 47 
 50 61 66 85 95 
 70 
 5 6 8 9 10 12 13 15 16 19 20 21 
 22 23 24 25 26 27 28 29 30 31 32 33 
 34 35 36 38 39 40 41 42 43 45 46 47 
 49 50 51 52 53 54 55 56 57 58 59 60 
 62 63 64 66 67 69 70 72 76 77 78 79 
 80 81 84 86 87 89 90 93 94 95 
 14 
 16 23 27 30 31 36 38 40 52 63 66 70 
 73 83 
 88 
 1 2 3 4 5 6 7 9 10 11 12 13 
 15 16 17 18 19 20 21 22 23 24 26 28 
 29 30 31 32 33 34 35 36 37 38 39 41 
 42 43 44 45 46 47 48 49 50 51 52 53 
 54 55 56 57 58 59 61 62 63 64 65 66 
 67 68 69 70 71 72 73 74 75 76 77 78 
 79 80 81 82 83 84 85 86 87 88 89 90 
 91 92 94 95 
 11 
 11 15 22 34 52 70 71 76 77 82 95 
 55 
 1 2 4 7 8 9 10 12 13 14 16 17 
 19 21 22 23 28 31 33 34 35 38 40 42 
 44 46 48 49 53 54 55 57 58 60 61 63 
 66 67 68 69 72 73 75 76 77 78 80 84 
 86 87 90 91 92 93 94 
 83 
 1 2 3 4 6 7 9 10 11 12 13 14 
 15 16 17 18 19 20 21 22 23 24 25 26 
 27 29 30 31 32 33 35 36 37 38 39 40 
 41 42 43 44 45 46 47 48 49 50 51 53 
 54 55 56 57 58 59 60 61 62 63 64 65 
 67 68 69 70 73 74 75 76 77 78 79 80 
 81 82 83 84 85 86 87 89 91 93 95 
 52 
 1 3 5 7 8 12 14 15 16 21 23 24 
 26 28 29 30 31 32 33 34 35 37 38 40 
 41 42 43 44 45 46 47 48 55 58 60 65 
 69 71 72 74 77 80 82 83 85 87 88 89 
 90 91 92 93 
 93 
 1 2 3 4 6 7 8 9 10 11 12 13 
 14 15 16 17 18 19 20 21 22 23 24 25 
 26 27 28 29 30 31 33 34 35 36 37 38 
 39 40 41 42 43 44 45 46 47 48 49 50 
 51 52 53 54 55 56 57 58 59 60 61 62 
 63 64 65 66 67 68 69 70 71 72 73 74 
 75 76 77 78 79 80 81 82 83 84 85 86 
 87 88 89 90 91 92 93 94 95 
 91 
 1 2 3 4 5 6 7 8 9 10 11 12 
 13 14 15 16 17 18 19 20 21 22 23 24 
 25 26 27 28 29 30 31 32 33 34 35 36 
 37 38 39 40 41 43 44 45 46 47 48 49 
 50 51 52 53 54 55 56 57 58 60 61 62 
 63 64 65 66 68 69 70 71 72 73 74 75 
 76 77 78 79 80 81 82 83 84 85 87 88 
 89 90 91 92 93 94 95 
 32 
 1 6 9 11 12 13 15 21 23 24 25 33 
 41 45 46 47 51 54 58 59 61 70 71 76 
 83 85 87 88 89 92 93 95 
 43 
 1 3 4 5 6 7 8 9 10 13 18 24 
 25 27 31 33 36 39 41 44 48 49 54 58 
 59 60 63 65 67 71 72 77 78 79 80 83 
 84 87 88 89 92 93 94 
 26 
 3 5 9 11 15 16 25 26 30 35 41 42 
 47 48 53 57 62 63 64 66 71 81 82 89 
 93 94 
 95 
 1 2 3 4 5 6 7 8 9 10 11 12 
 13 14 15 16 17 18 19 20 21 22 23 24 
 25 26 27 28 29 30 31 32 33 34 35 36 
 37 38 39 40 41 42 43 44 45 46 47 48 
 49 50 51 52 53 54 55 56 57 58 59 60 
 61 62 63 64 65 66 67 68 69 70 71 72 
 73 74 75 76 77 78 79 80 81 82 83 84 
 85 86 87 88 89 90 91 92 93 94 95 
 49 
 1 2 4 5 6 7 12 16 18 20 21 23 
 24 25 29 31 34 36 37 38 39 40 41 43 
 47 52 55 56 57 58 63 65 66 68 69 70 
 72 73 76 77 79 80 86 87 88 90 91 93 
 94 
 71 
 1 2 3 5 7 8 9 10 11 12 14 15 
 16 19 21 23 25 26 28 30 31 32 33 34 
 37 39 41 42 43 45 46 47 48 50 51 52 
 53 54 55 56 58 59 60 63 64 65 66 67 
 68 69 70 71 75 76 77 78 80 81 82 83 
 84 85 86 87 88 89 90 91 92 94 95 
 84 
 2 3 4 5 6 7 8 9 11 12 13 14 
 15 16 17 18 19 20 21 22 23 24 25 26 
 27 29 30 31 32 33 34 35 36 38 40 41 
 42 43 44 45 46 47 48 49 50 51 52 53 
 54 55 56 57 58 59 62 63 64 65 66 67 
 68 69 70 71 72 73 74 76 77 78 79 80 
 81 82 83 84 85 86 87 89 90 92 93 95 
 95 
 1 2 3 4 5 6 7 8 9 10 11 12 
 13 14 15 16 17 18 19 20 21 22 23 24 
 25 26 27 28 29 30 31 32 33 34 35 36 
 37 38 39 40 41 42 43 44 45 46 47 48 
 49 50 51 52 53 54 55 56 57 58 59 60 
 61 62 63 64 65 66 67 68 69 70 71 72 
 73 74 75 76 77 78 79 80 81 82 83 84 
 85 86 87 88 89 90 91 92 93 94 95 
 5 
 12 33 41 49 56 
 50 
 3 4 5 6 7 8 10 11 13 14 17 26 
 27 32 34 35 36 39 40 41 45 46 50 52 
 53 55 56 57 58 59 60 61 62 63 64 65 
 69 71 72 74 76 78 79 80 81 86 87 89 
 94 95 
 23 
 1 6 16 17 21 22 28 31 33 41 43 44 
 46 52 54 57 59 63 67 71 73 88 90 
 15 
 7 14 18 19 33 37 38 39 43 45 62 66 
 76 89 90 
 42 
 1 3 5 7 9 14 18 20 21 22 23 24 
 30 31 32 33 35 36 37 38 40 42 46 50 
 51 53 55 56 57 59 60 63 69 74 75 76 
 78 79 83 84 85 92 
 89 
 1 2 3 4 5 6 7 8 9 10 11 12 
 13 14 15 16 17 18 19 21 22 23 24 25 
 26 27 28 29 30 31 32 33 34 35 36 38 
 39 40 41 42 43 44 45 46 47 48 49 50 
 52 53 54 55 56 57 58 59 60 61 62 63 
 64 65 66 67 68 69 70 71 72 73 74 75 
 76 77 78 79 81 82 83 84 85 86 88 89 
 90 92 93 94 95 
 13 
 14 16 18 22 37 38 46 50 55 60 67 71 
 76 
 93 
 1 2 3 4 5 6 7 8 9 10 11 12 
 13 14 15 16 17 18 19 20 21 22 23 24 
 25 26 27 29 30 31 32 33 34 35 36 37 
 38 40 41 42 43 44 45 46 47 48 49 50 
 51 52 53 54 55 56 57 58 59 60 61 62 
 63 64 65 66 67 68 69 70 71 72 73 74 
 75 76 77 78 79 80 81 82 83 84 85 86 
 87 88 89 90 91 92 93 94 95 
 15 
 11 18 20 24 30 38 39 51 65 67 75 80 
 90 91 95 
 95 
 1 2 3 4 5 6 7 8 9 10 11 12 
 13 14 15 16 17 18 19 20 21 22 23 24 
 25 26 27 28 29 30 31 32 33 34 35 36 
 37 38 39 40 41 42 43 44 45 46 47 48 
 49 50 51 52 53 54 55 56 57 58 59 60 
 61 62 63 64 65 66 67 68 69 70 71 72 
 73 74 75 76 77 78 79 80 81 82 83 84 
 85 86 87 88 89 90 91 92 93 94 95 
 69 
 1 3 4 7 8 9 11 12 13 14 17 18 
 19 20 21 22 23 29 30 31 32 34 36 37 
 38 39 40 41 43 44 45 47 48 49 53 54 
 55 56 57 58 59 60 64 65 66 67 69 70 
 71 72 73 74 75 76 77 79 81 82 83 84 
 85 86 87 89 90 91 92 93 94 
 33 
 1 3 7 8 10 12 13 14 15 20 25 29 
 38 42 44 48 52 54 55 56 60 61 62 64 
 67 73 74 76 79 81 86 88 93 
 27 
 7 12 15 17 19 23 29 35 41 44 48 49 
 53 54 55 57 58 60 62 65 71 75 83 84 
 89 92 95 
 35 
 2 4 5 8 9 10 12 19 20 26 31 32 
 39 42 43 51 53 56 57 60 61 62 64 66 
 67 70 71 73 75 79 84 88 89 91 93 
 82 
 1 3 4 6 7 8 9 10 11 13 14 15 
 16 17 18 19 20 21 22 23 24 25 26 27 
 28 29 30 31 32 34 36 37 38 39 40 41 
 42 43 45 46 47 48 49 51 54 55 56 57 
 58 60 61 62 63 64 65 66 67 68 69 70 
 71 72 74 75 76 77 78 79 80 81 82 83 
 84 85 86 87 88 89 90 91 92 94 
 22 
 6 8 9 15 18 19 23 25 26 30 33 40 
 45 58 61 62 65 69 76 80 91 95 
 87 
 1 2 3 4 5 6 7 8 9 10 11 12 
 14 15 16 17 18 19 20 21 22 23 24 25 
 26 27 28 29 30 31 32 33 34 35 36 37 
 40 41 42 43 44 45 46 47 48 49 50 51 
 52 53 54 55 57 59 60 61 62 63 64 65 
 66 68 69 70 71 72 73 74 75 76 77 78 
 80 81 82 83 84 85 86 87 88 89 90 91 
 92 93 94 
 69 
 2 5 6 12 13 14 15 16 17 18 19 20 
 22 23 24 25 26 27 28 30 32 33 34 38 
 39 40 42 43 45 46 47 49 50 51 52 54 
 55 56 57 58 59 61 62 64 65 66 67 68 
 69 71 72 73 74 75 76 77 78 79 80 82 
 83 85 87 88 89 91 92 93 94 
 9 
 13 24 26 27 38 41 42 50 66 
 32 
 4 6 12 19 20 23 24 27 32 41 43 44 
 45 46 51 52 54 55 61 63 64 66 68 71 
 72 73 74 75 76 85 86 93 
 8 
 23 26 28 37 40 66 73 75 
 53 
 1 4 5 8 10 11 12 15 16 19 20 21 
 22 24 26 28 30 31 32 33 34 35 36 37 
 38 39 40 43 45 46 47 48 49 50 52 55 
 56 57 58 64 65 66 68 76 77 79 82 83 
 84 86 88 90 95 
 38 
 1 2 6 7 12 14 15 16 17 18 19 20 
 24 29 36 41 42 43 44 47 52 55 56 57 
 58 61 66 68 72 73 75 77 79 81 89 92 
 93 94 
 79 
 1 3 4 5 6 8 10 11 12 13 14 15 
 17 19 20 21 22 23 24 25 27 28 29 30 
 31 32 33 35 36 38 39 40 41 44 45 46 
 47 48 49 50 51 53 54 55 56 57 58 59 
 61 62 63 64 66 67 68 69 70 71 72 73 
 74 75 76 77 79 81 82 83 84 85 86 87 
 88 89 90 91 92 93 94 
 69 
 2 4 6 7 8 9 10 11 12 13 14 15 
 17 19 20 21 22 23 24 25 27 29 30 31 
 32 33 34 35 36 37 38 39 40 41 44 45 
 46 49 51 52 53 55 56 57 63 64 66 67 
 68 69 70 73 75 76 78 79 80 81 82 83 
 84 85 87 88 89 90 92 93 94 
 30 
 8 9 10 14 17 19 21 22 33 39 42 46 
 47 49 52 54 61 64 70 71 74 75 78 79 
 80 82 87 89 91 94 
 3 
 2 41 44 
 30 
 1 4 7 8 9 13 16 20 24 26 27 33 
 35 36 39 43 46 48 55 57 58 59 72 78 
 81 83 86 90 93 94 
 10 
 2 6 12 17 29 43 45 66 72 77 
 53 
 1 5 8 9 11 12 13 15 18 20 22 23 
 25 26 28 29 30 33 34 35 36 37 38 40 
 41 42 45 47 49 51 54 56 59 62 65 66 
 69 70 71 73 75 76 77 79 80 81 84 87 
 89 92 93 94 95 
 33 
 1 3 4 9 12 14 21 26 37 39 40 42 
 43 44 49 50 53 54 55 59 62 67 70 73 
 74 75 79 81 83 84 87 91 93 
 81 
 1 2 4 5 6 8 9 10 12 13 14 15 
 16 17 19 20 21 22 23 24 25 26 27 28 
 29 30 31 32 35 36 37 38 39 40 42 43 
 44 45 47 48 49 50 51 53 54 55 56 57 
 58 60 61 62 63 65 66 67 68 69 70 71 
 72 73 74 75 76 78 79 80 81 82 83 84 
 85 86 87 88 89 91 93 94 95 
 